(set-info :smt-lib-version 2.6)
(set-info :category "crafted")
(set-logic QF_FFA)
(define-sort FF0 () (_ FiniteField 52435875175126190479447740508185965837690552500527637822603658699938581184513))
(declare-fun b () Bool)
(declare-fun a () Bool)
(declare-fun return_n0 () FF0)
(declare-fun mul_n19 () FF0)
(declare-fun is_zero_n17 () FF0)
(declare-fun mul_n18 () FF0)
(declare-fun mul_n13 () FF0)
(declare-fun mul_n7 () FF0)
(declare-fun mul_n9 () FF0)
(declare-fun mul_n6 () FF0)
(declare-fun mul_n15 () FF0)
(declare-fun a_n2 () FF0)
(declare-fun is_zero_n5 () FF0)
(declare-fun is_zero_inv_n16 () FF0)
(declare-fun mul_n14 () FF0)
(declare-fun mul_n11 () FF0)
(declare-fun mul_n12 () FF0)
(declare-fun mul_n3 () FF0)
(declare-fun b_n1 () FF0)
(declare-fun mul_n8 () FF0)
(declare-fun mul_n10 () FF0)
(declare-fun is_zero_inv_n4 () FF0)
(assert 
  (let ((let0 b))
  (let ((let1 a))
  (let ((let2 (ite let0 let1 let0)))
  (let ((let3 (and let0 let2 let1 let1 let1 let0)))
  (let ((let4 (ite let2 let2 let3)))
  (let ((let5 (=> let4 let3)))
  (let ((let6 (= let3 let4)))
  (let ((let7 (=> let6 let5)))
  (let ((let8 (not let5)))
  (let ((let9 (=> let8 let7)))
  (let ((let10 (or let9 let4)))
  (let ((let11 (and let6 let2)))
  (let ((let12 (=> let11 let7)))
  (let ((let13 (= let12 let10)))
  (let ((let14 (ite let12 let8 let5)))
  (let ((let15 (or let4 let7 let14 let1)))
  (let ((let16 (ite let7 let5 let12)))
  (let ((let17 (and let16 let15 let13)))
  (let ((let18 return_n0))
  (let ((let19 (as ff1 FF0)))
  (let ((let20 (= let19 let18)))
  (let ((let21 (= let20 let17)))
  (let ((let22 (as ff0 FF0)))
  (let ((let23 (= let22 let18)))
  (let ((let24 (or let20 let23)))
  (let ((let25 (and let24 let21)))
  (let ((let26 mul_n19))
  (let ((let27 (as ff52435875175126190479447740508185965837690552500527637822603658699938581184512 FF0)))
  (let ((let28 is_zero_n17))
  (let ((let29 (ff.mul let28 let27)))
  (let ((let30 (ff.add let29 let19)))
  (let ((let31 mul_n18))
  (let ((let32 mul_n13))
  (let ((let33 (ff.mul let32 let27)))
  (let ((let34 (ff.add let33 let31 let19)))
  (let ((let35 (ff.mul let34 let30)))
  (let ((let36 (= let35 let26)))
  (let ((let37 mul_n7))
  (let ((let38 (ff.mul let37 let27)))
  (let ((let39 (ff.add let32 let38)))
  (let ((let40 mul_n9))
  (let ((let41 (ff.mul let40 let27)))
  (let ((let42 (ff.add let41 let19)))
  (let ((let43 (ff.mul let42 let39)))
  (let ((let44 (= let43 let31)))
  (let ((let45 (as ff2 FF0)))
  (let ((let46 mul_n6))
  (let ((let47 mul_n15))
  (let ((let48 a_n2))
  (let ((let49 is_zero_n5))
  (let ((let50 (ff.add let49 let48 let38 let47 let41 let46 let45)))
  (let ((let51 (ff.mul let28 let50)))
  (let ((let52 (= let51 let22)))
  (let ((let53 is_zero_inv_n16))
  (let ((let54 (ff.mul let53 let50)))
  (let ((let55 (= let54 let30)))
  (let ((let56 (ff.mul let37 let45)))
  (let ((let57 (ff.add let56 let27)))
  (let ((let58 (ff.add let33 let19)))
  (let ((let59 (ff.mul let58 let57)))
  (let ((let60 (= let59 let47)))
  (let ((let61 mul_n14))
  (let ((let62 mul_n11))
  (let ((let63 (ff.mul let62 let27)))
  (let ((let64 (ff.add let63 let19)))
  (let ((let65 (as ff52435875175126190479447740508185965837690552500527637822603658699938581184511 FF0)))
  (let ((let66 (ff.mul let32 let65)))
  (let ((let67 (ff.add let66 let45)))
  (let ((let68 (ff.mul let67 let64)))
  (let ((let69 (= let68 let61)))
  (let ((let70 mul_n12))
  (let ((let71 (ff.mul let70 let40)))
  (let ((let72 (= let71 let32)))
  (let ((let73 mul_n3))
  (let ((let74 b_n1))
  (let ((let75 (ff.add let74 let73)))
  (let ((let76 (ff.mul let46 let27)))
  (let ((let77 (ff.mul let49 let65)))
  (let ((let78 mul_n8))
  (let ((let79 (ff.add let78 let77 let76 let19)))
  (let ((let80 (ff.mul let79 let75)))
  (let ((let81 (= let80 let70)))
  (let ((let82 (ff.mul let49 let27)))
  (let ((let83 (ff.add let82 let76 let19)))
  (let ((let84 mul_n10))
  (let ((let85 (ff.mul let84 let83)))
  (let ((let86 (= let85 let62)))
  (let ((let87 (ff.mul let37 let40)))
  (let ((let88 (= let87 let84)))
  (let ((let89 (ff.mul let79 let37)))
  (let ((let90 (= let89 let40)))
  (let ((let91 (ff.add let49 let46)))
  (let ((let92 (ff.mul let49 let45)))
  (let ((let93 (ff.mul let92 let91)))
  (let ((let94 (= let93 let78)))
  (let ((let95 (ff.add let82 let19)))
  (let ((let96 (ff.mul let91 let95)))
  (let ((let97 (= let96 let37)))
  (let ((let98 (ff.add let74 let82 let73)))
  (let ((let99 (ff.mul let75 let98)))
  (let ((let100 (= let99 let46)))
  (let ((let101 (as ff6 FF0)))
  (let ((let102 (ff.mul let73 let27)))
  (let ((let103 (as ff52435875175126190479447740508185965837690552500527637822603658699938581184510 FF0)))
  (let ((let104 (ff.mul let74 let103)))
  (let ((let105 (ff.mul let48 let103)))
  (let ((let106 (ff.add let105 let104 let102 let101)))
  (let ((let107 (ff.mul let49 let106)))
  (let ((let108 (= let107 let22)))
  (let ((let109 is_zero_inv_n4))
  (let ((let110 (ff.mul let109 let106)))
  (let ((let111 (= let110 let95)))
  (let ((let112 (ff.mul let74 let27)))
  (let ((let113 (ff.add let112 let48)))
  (let ((let114 (ff.mul let74 let113)))
  (let ((let115 (= let114 let73)))
  (let ((let116 (and let115 let111 let108 let100 let97 let94 let90 let88 let86 let81 let72 let69 let60 let55 let52 let44 let36)))
  (let ((let117 (ite let0 let19 let22)))
  (let ((let118 (= let74 let117)))
  (let ((let119 (ite let1 let19 let22)))
  (let ((let120 (= let48 let119)))
  (let ((let121 (and let120 let118)))
  (let ((let122 (and let121 let116)))
  (let ((let123 (=> let122 let25)))
  (let ((let124 (not let123)))
  let124
)))))))))))))))))))))))))))))))))))))))))))))))))))))))))))))))))))))))))))))))))))))))))))))))))))))))))))))))))))))))))))))
)
(check-sat)
